p cnf 18 34
a 10 12 0
e 1 2 3 4 5 6 7 8 9 11 13 14 15 16 17 18 0
-3 -1 0
-3 -2 0
1 2 3 0
-6 -4 0
-6 -5 0
4 5 6 0
8 -2 0
8 7 0
2 -7 -8 0
-10 9 0
-10 4 0
-9 -4 10 0
-11 8 0
-11 -10 0
-8 10 11 0
12 -6 0
12 -11 0
6 11 -12 0
13 3 0
13 12 0
-3 -12 -13 0
16 14 0
16 -15 0
-14 15 -16 0
-17 -4 0
-17 16 0
4 -16 17 0
18 -13 0
18 17 0
13 -17 -18 0
17 -5 14 9 15 0
-17 -2 14 5 0
-16 -5 12 -8 0
18 0
